id: 1325
name: siena1
group: miplib2010
method: 2

Gurobi 7.0.2 (linux64, Matlab) logging started Mon Mar 26 10:23:15 2018


Gurobi 7.0.2 (linux64) logging started Mon Mar 26 10:23:15 2018

Optimize a model with 2220 rows, 13741 columns and 258915 nonzeros
Coefficient statistics:
  Matrix range     [1e+00, 1e+08]
  Objective range  [2e+00, 1e+08]
  Bounds range     [1e+00, 1e+00]
  RHS range        [1e+00, 1e+10]
Warning: Model contains large rhs
         Consider reformulating model or setting NumericFocus parameter
         to avoid numerical issues.
Presolve removed 9 rows and 259 columns
Presolve time: 0.06s
Presolved: 2211 rows, 13482 columns, 254310 nonzeros

Ordering time: 0.11s

Barrier statistics:
 AA' NZ     : 2.621e+05
 Factor NZ  : 1.345e+06 (roughly 17 MBytes of memory)
 Factor Ops : 1.113e+09 (less than 1 second per iteration)
 Threads    : 4

                  Objective                Residual
Iter       Primal          Dual         Primal    Dual     Compl     Time
   0   4.42856090e+11 -1.13783307e+09  1.89e+06 1.46e-11  3.36e+07     0s
   1   1.68447565e+11 -1.11632660e+09  7.17e+05 8.05e+04  1.29e+07     0s
   2   3.66234038e+10 -1.22039200e+09  1.54e+05 3.58e+04  2.90e+06     0s
   3   3.99424911e+09 -1.14778973e+09  1.65e+04 1.58e+04  3.56e+05     0s
   4   4.41968232e+08 -6.46536665e+08  1.74e+03 5.91e+02  5.63e+04     0s
   5   1.00886076e+08 -2.28397927e+08  3.61e+02 1.48e+02  1.51e+04     0s
   6   3.10670945e+07 -9.66412871e+07  8.09e+01 5.85e+01  5.43e+03     0s
   7   1.45941191e+07 -3.07335040e+07  1.52e+01 1.93e+01  1.83e+03     0s
   8   1.09252309e+07 -5.62663967e+06  7.25e-01 7.11e+00  6.52e+02     1s
   9   1.06956507e+07  6.14929559e+06  4.03e-02 1.94e+00  1.79e+02     1s
  10   1.05659611e+07  7.55216051e+06  7.98e-03 1.26e+00  1.19e+02     1s
  11   1.04552691e+07  8.55646403e+06  3.96e-03 7.50e-01  7.48e+01     1s
  12   1.03672790e+07  9.25962290e+06  2.04e-03 4.25e-01  4.36e+01     1s
  13   1.02787509e+07  9.67517179e+06  5.73e-04 2.20e-01  2.38e+01     1s
  14   1.02368173e+07  9.87483504e+06  1.99e-04 1.28e-01  1.43e+01     1s
  15   1.02005424e+07  1.00089812e+07  2.00e-05 6.55e-02  7.54e+00     1s
  16   1.01798556e+07  1.00924943e+07  6.74e-06 2.86e-02  3.44e+00     1s
  17   1.01716160e+07  1.01281929e+07  2.89e-06 1.40e-02  1.71e+00     1s
  18   1.01668471e+07  1.01427715e+07  1.01e-06 7.92e-03  9.48e-01     1s
  19   1.01640027e+07  1.01571968e+07  1.38e-07 2.15e-03  2.68e-01     1s
  20   1.01634450e+07  1.01625081e+07  1.66e-08 1.69e-04  3.68e-02     1s
  21   1.01632730e+07  1.01630151e+07  5.04e-09 3.71e-05  1.01e-02     1s
  22   1.01631986e+07  1.01631344e+07  8.55e-10 8.53e-06  2.52e-03     1s
  23   1.01631912e+07  1.01631674e+07  5.15e-10 2.13e-06  9.34e-04     1s
  24   1.01631810e+07  1.01631760e+07  7.38e-11 5.51e-07  1.95e-04     1s
  25   1.01631796e+07  1.01631791e+07  1.93e-11 2.00e-08  2.24e-05     1s
  26   1.01631792e+07  1.01631792e+07  1.40e-08 1.49e-08  2.00e-07     1s
  27   1.01631792e+07  1.01631792e+07  1.11e-10 1.49e-08  5.24e-10     1s

Barrier solved model in 27 iterations and 1.08 seconds
Optimal objective 1.01631792e+07

Crossover log...

       0 DPushes remaining with DInf 3.0484102e-08                 1s

      11 PPushes remaining with PInf 0.0000000e+00                 1s
       0 PPushes remaining with PInf 0.0000000e+00                 1s

  Push phase complete: Pinf 0.0000000e+00, Dinf 3.3805151e-08      1s

Iteration    Objective       Primal Inf.    Dual Inf.      Time
    1138    1.0163179e+07   0.000000e+00   0.000000e+00      1s
    1138    1.0163179e+07   0.000000e+00   0.000000e+00      1s

Solved in 1138 iterations and 1.18 seconds
Optimal objective  1.016317923e+07
status: OPTIMAL
